(set-logic ALL)
(set-option :produce-models true)
(declare-sort BoundSet 0)
(declare-sort UnboundSet 0)
(declare-fun IsBlond (BoundSet) Bool)
(declare-fun HasTattoo (BoundSet BoundSet) Bool)
(declare-fun IsTattooOf (BoundSet BoundSet) Bool)
(declare-fun IsOnArm (BoundSet BoundSet) Bool)
(assert (not (=> (exists ((a BoundSet)) (exists ((c BoundSet)) (exists ((d BoundSet)) (exists ((b BoundSet)) (and (IsBlond b) (and (HasTattoo b a) (and (IsTattooOf a c) (IsOnArm a d)))))))) (exists ((e BoundSet)) (exists ((a BoundSet)) (HasTattoo e a))))))
(check-sat)
(get-model)